32816.0
1 0 0 1 1 1 0 1 1 0 0 0 1 0 0 0 0 0 0 1 0 1 0 0 0 0 0 1 1 0 
19 23 50 61 81 94 98 105 118 129 139 151 153 163 176 188 


13 16 46 64 95 109 136 137 158 159 160 168 
10 28 32 43 60 84 104 106 111 124 167 174 178 193 
22 24 66 74 75 77 80 87 134 145 152 156 162 164 166 170 180 187 198 

0 15 40 56 59 62 70 83 89 92 93 103 117 144 149 194 196 
12 17 36 37 41 44 54 57 63 73 76 78 82 85 115 119 120 133 135 154 171 173 177 179 185 



5 35 42 55 65 69 71 97 102 113 114 121 127 132 140 142 143 184 195 






1 27 30 31 45 48 49 67 72 86 91 110 123 128 172 183 192 199 

2 4 6 21 29 33 39 47 51 52 53 79 101 125 126 131 147 157 169 175 181 182 189 190 191 197 





3 7 8 18 20 25 26 34 38 58 88 107 108 112 141 146 148 150 161 165 
9 11 14 68 90 96 99 100 116 122 130 138 155 186 

